Set parameter TokenServer to value "hpc-licenses.hpcc.usc.edu"
Set parameter TimeLimit to value 3600
Gurobi Optimizer version 9.5.1 build v9.5.1rc2 (linux64)
Thread count: 20 physical cores, 20 logical processors, using up to 20 threads
Optimize a model with 6007 rows, 4529 columns and 24534 nonzeros
Model fingerprint: 0x212ecb5d
Variable types: 4506 continuous, 23 integer (23 binary)
Coefficient statistics:
  Matrix range     [1e+00, 1e+00]
  Objective range  [5e-03, 1e+00]
  Bounds range     [1e+00, 1e+00]
  RHS range        [1e+00, 5e+01]
Found heuristic solution: objective 256.2357991
Presolve removed 1514 rows and 1511 columns
Presolve time: 0.07s
Presolved: 4493 rows, 3018 columns, 21993 nonzeros
Variable types: 2998 continuous, 20 integer (20 binary)

Root relaxation: objective 2.592591e+02, 2007 iterations, 0.11 seconds (0.11 work units)

    Nodes    |    Current Node    |     Objective Bounds      |     Work
 Expl Unexpl |  Obj  Depth IntInf | Incumbent    BestBd   Gap | It/Node Time

     0     0  259.25905    0    4  256.23580  259.25905  1.18%     -    0s
H    0     0                     259.1733238  259.25905  0.03%     -    0s
     0     0  259.24293    0    4  259.17332  259.24293  0.03%     -    0s
     0     0     cutoff    0       259.17332  259.17332  0.00%     -    0s

Explored 1 nodes (2356 simplex iterations) in 0.61 seconds (0.26 work units)
Thread count was 20 (of 20 available processors)

Solution count 2: 259.173 256.236 

Optimal solution found (tolerance 1.00e-04)
Best objective 2.591733238224e+02, best bound 2.591733238224e+02, gap 0.0000%



#########node  1
V1.9
#########node  2
0.05660377358490565,0.9433962264150944
#########node  3
1.0,0.0


Total Solving Time 0.9892072677612305
obj value 259.1733238223801
Policy Regret train (Sum) 1.515319924254638
Best Treatment Found train (%) 88.8
treatment classification acc train (%) 46.0
Policy Regret test (Sum) 145.29074060878332
Best Treatment Found test (%) 59.919999999999995
treatment classification acc test (%) 44.9
